qbf_easy_train/easy_5015_SAT.qdimacs
p cnf 18 37
a 1 4 14 0
e 2 3 5 6 7 8 9 10 11 12 13 15 16 17 18 0
1 2 -3 0
-1 -2 -3 0
1 -2 3 0
-1 2 3 0
5 -3 0
5 -4 0
3 4 -5 0
-7 2 0
-7 -6 0
-2 6 7 0
-8 9 -10 0
8 -9 -10 0
-8 -9 10 0
8 9 10 0
11 -7 0
11 10 0
7 -10 -11 0
13 -6 0
13 12 0
6 -12 -13 0
-15 13 0
-15 14 0
-13 -14 15 0
-13 -15 -16 0
13 15 -16 0
-13 15 16 0
13 -15 16 0
17 11 0
17 16 0
-11 -16 -17 0
18 -5 0
18 -17 0
5 17 -18 0
-7 -16 0
8 17 -5 14 18 4 9 0
-11 13 16 -15 -9 -1 -3 0
18 0
