sat_easy_train/easy_5015_SAT.dimacs
p cnf 81 247
4 -2 0
4 3 0
2 -3 -4 0
-6 4 0
-6 5 0
-4 -5 6 0
1 6 -7 0
-1 -6 -7 0
1 -6 7 0
-1 6 7 0
-9 -8 0
-9 -1 0
8 1 9 0
12 10 0
12 -11 0
-10 11 -12 0
-13 9 0
-13 -12 0
-9 12 13 0
7 -13 -14 0
-7 13 -14 0
7 13 14 0
-7 -13 14 0
9 -3 -15 0
-9 3 -15 0
9 3 15 0
-9 -3 15 0
8 -12 -16 0
-8 12 -16 0
8 12 16 0
-8 -12 16 0
15 16 -17 0
-15 -16 -17 0
15 -16 17 0
-15 16 17 0
-3 19 -20 0
3 -19 -20 0
-3 -19 20 0
3 19 20 0
-21 -18 0
-21 -20 0
18 20 21 0
17 21 -22 0
-17 -21 -22 0
17 -21 22 0
-17 21 22 0
-23 -3 0
-23 11 0
3 -11 23 0
25 15 0
25 -24 0
-15 24 -25 0
-26 -9 0
-26 -20 0
9 20 26 0
27 25 0
27 26 0
-25 -26 -27 0
23 27 -28 0
-23 -27 -28 0
23 -27 28 0
-23 27 28 0
29 -8 0
29 19 0
8 -19 -29 0
-10 29 -30 0
10 -29 -30 0
-10 -29 30 0
10 29 30 0
32 -3 0
32 31 0
3 -31 -32 0
33 30 0
33 -32 0
-30 32 -33 0
-34 28 0
-34 -33 0
-28 33 34 0
22 -34 -35 0
-22 34 -35 0
22 34 35 0
-22 -34 35 0
38 -36 0
38 37 0
36 -37 -38 0
2 -38 -39 0
-2 38 -39 0
2 38 39 0
-2 -38 39 0
40 -35 0
40 -39 0
35 39 -40 0
-14 -40 -41 0
14 40 -41 0
-14 40 41 0
14 -40 41 0
42 -36 0
42 8 0
36 -8 -42 0
-41 -42 -43 0
41 42 -43 0
-41 42 43 0
41 -42 43 0
-45 44 0
-45 36 0
-44 -36 45 0
-46 -19 0
-46 45 0
19 -45 46 0
43 46 -47 0
-43 -46 -47 0
43 -46 47 0
-43 46 47 0
31 -48 0
-31 -48 0
-12 -2 -49 0
12 2 -49 0
-12 2 49 0
12 -2 49 0
-50 49 0
-50 -3 0
-49 3 50 0
51 -48 0
51 -50 0
48 50 -51 0
-52 51 0
-52 18 0
-51 -18 52 0
-12 19 -54 0
12 -19 -54 0
-12 -19 54 0
12 19 54 0
53 54 -55 0
-53 -54 -55 0
53 -54 55 0
-53 54 55 0
-56 -52 0
-56 55 0
52 -55 56 0
-57 15 0
-57 -36 0
-15 36 57 0
-45 20 -58 0
45 -20 -58 0
-45 -20 58 0
45 20 58 0
59 57 0
59 -58 0
-57 58 -59 0
-3 -8 -60 0
3 8 -60 0
-3 8 60 0
3 -8 60 0
-61 -1 0
-61 3 0
1 -3 61 0
-62 -45 0
-62 -61 0
45 61 62 0
63 -60 0
63 62 0
60 -62 -63 0
64 -59 0
64 63 0
59 -63 -64 0
-65 56 0
-65 64 0
-56 -64 65 0
-66 -8 0
-66 -1 0
8 1 66 0
-5 44 -67 0
5 -44 -67 0
-5 -44 67 0
5 44 67 0
68 8 0
68 -67 0
-8 67 -68 0
69 18 0
69 18 0
-18 -69 0
-70 37 0
-70 -16 0
-37 16 70 0
71 -15 0
71 24 0
15 -24 -71 0
73 -71 0
73 72 0
71 -72 -73 0
74 -70 0
74 -73 0
70 73 -74 0
75 69 0
75 -74 0
-69 74 -75 0
-76 -68 0
-76 75 0
68 -75 76 0
-77 66 0
-77 76 0
-66 -76 77 0
78 9 0
78 51 0
-9 -51 -78 0
-79 -77 0
-79 78 0
77 -78 79 0
80 65 0
80 -79 0
-65 79 -80 0
-81 -47 0
-81 80 0
47 -80 81 0
-81 -29 11 0
67 73 -13 0
52 -49 -19 -29 76 0
47 50 49 -15 -16 0
-28 -24 -23 39 -4 -52 0
-12 -42 -49 -71 0
-11 62 -74 34 56 0
72 30 28 0
32 -42 58 66 -49 0
52 7 -42 -33 38 0
-26 -3 0
80 50 0
76 -55 45 -58 47 0
-38 -48 2 12 0
42 -63 0
32 -48 0
41 29 0
51 43 -21 -73 47 0
-61 -47 -43 -2 -22 0
-62 63 -59 -5 -69 0
2 41 -54 -65 -14 0
68 25 -45 10 0
41 34 54 6 73 0
57 22 24 0
56 -80 52 0
-52 -60 -4 45 -48 0
49 26 41 -2 76 -16 0
53 50 81 -33 0
19 -76 -49 0
-70 80 35 0
-12 -23 -36 -79 0
59 -24 -48 77 -37 -71 0
81 0
